NAME lp_typeD_982
OBJSENSE MAX
ROWS
 N  OBJ
 L  c0      
 L  c1      
 G  c2      
 G  c3      
 L  c_key_upper
 G  c_key_lower
 G  _chain_constr_1
 G  _chain_constr_2
 G  _chain_constr_3
 G  _chain_cycle
COLUMNS
    x0        OBJ       1.2046008860387185e+00
    x0        c0        1.8682911499454544e+00
    x0        c1        1.9615257314600634e+00
    x0        c2        1.0525809208728734e+00
    x0        c3        1.1946765475463277e+00
    x0        c_key_upper  1.7129455163715013e+00
    x0        c_key_lower  1.7129455163715013e+00
    x1        OBJ       7.6836705278180850e-01
    x1        c0        1.1987009307041518e+00
    x1        c1        1.8151660790271062e+00
    x1        c2        1.4283248846589562e+00
    x1        c3        5.9241339175093866e-01
    x1        c_key_upper  1.2347398388525166e+00
    x1        c_key_lower  1.2347398388525166e+00
    x2        OBJ       9.2675631994043683e-01
    x2        c0        1.2640079379015823e+00
    x2        c1        1.5088005406860359e+00
    x2        c2        1.9961219918994546e+00
    x2        c3        1.8558058799085075e+00
    x2        c_key_upper  1.9913870340727662e+00
    x2        c_key_lower  1.9913870340727662e+00
    x3        OBJ       1.0341190135672254e+00
    x3        c0        8.0370905469253651e-01
    x3        c1        1.6232965844879792e+00
    x3        c2        1.2175659650913730e+00
    x3        c3        1.3431994885960465e+00
    x3        c_key_upper  1.6794329601233113e+00
    x3        c_key_lower  1.6794329601233113e+00
    x4        OBJ       1.2831150966005533e+00
    x4        c0        7.2021549999933376e-01
    x4        c1        1.6732394543936178e+00
    x4        c2        8.7251585267840714e-01
    x4        c3        0.66536594963409
    x4        c_key_upper  1.5826884162973789e+00
    x4        c_key_lower  1.5826884162973789e+00
    x5        OBJ       1.1979839477775633e+00
    x5        c0        5.5889885143332130e-01
    x5        c1        1.0335153183561818e+00
    x5        c2        1.4375539069865033e+00
    x5        c3        1.8044758685435116e+00
    x5        c_key_upper  1.1246956361389042e+00
    x5        c_key_lower  1.1246956361389042e+00
    x6        OBJ       1.2797770436515032e+00
    x6        c0        1.1410406776623172e+00
    x6        c1        1.9417194892295757e+00
    x6        c2        1.9718813159402744e+00
    x6        c3        7.6376161258654929e-01
    x6        c_key_upper  1.2007635071911027e+00
    x6        c_key_lower  1.2007635071911027e+00
    x7        OBJ       1.32853818540698
    x7        c0        1.7770740408005583e+00
    x7        c1        1.3741879268265462e+00
    x7        c2        1.8869872899028186e+00
    x7        c3        0.797638549599899
    x7        c_key_upper  1.6846986937991275e+00
    x7        c_key_lower  1.6846986937991275e+00
    _chain_var_0  _chain_constr_1  -1
    _chain_var_0  _chain_cycle  1
    _chain_var_1  _chain_constr_1  1
    _chain_var_1  _chain_constr_2  -1
    _chain_var_2  _chain_constr_2  1
    _chain_var_2  _chain_constr_3  -1
    _chain_var_3  _chain_constr_3  1
    _chain_var_3  _chain_cycle  -1
RHS
    RHS1      c0        5.3658868091778224e+01
    RHS1      c1        6.8838945155015082e+01
    RHS1      c2        1.8184365233131032e+01
    RHS1      c3        1.3050456342192081e+01
    RHS1      c_key_upper  6.1056758014233040e+01
    RHS1      c_key_lower  3.0528379007116520e+01
    RHS1      _chain_constr_1  10
    RHS1      _chain_constr_2  10
    RHS1      _chain_constr_3  10
    RHS1      _chain_cycle  10
BOUNDS
 UP BND1      x0        10
 UP BND1      x1        10
 UP BND1      x2        10
 UP BND1      x3        10
 UP BND1      x4        10
 UP BND1      x5        10
 UP BND1      x6        10
 UP BND1      x7        10
 UP BND1      _chain_var_0  100
 UP BND1      _chain_var_1  100
 UP BND1      _chain_var_2  100
 UP BND1      _chain_var_3  100
ENDATA
